p cnf 292 208
d 0.875 0.125
d 0.875 0.125
d 0.875 0.125
d 0.875 0.125
d 0.875 0.125
d 0.875 0.125
d 0.875 0.125
d 0.875 0.125
d 0.875 0.125
d 0.875 0.125
d 0.875 0.125
d 0.875 0.125
d 0.875 0.125
d 0.875 0.125
d 0.875 0.125
d 0.875 0.125
d 0.875 0.125
d 0.875 0.125
d 0.875 0.125
d 0.875 0.125
d 0.875 0.125
d 0.875 0.125
d 0.875 0.125
d 0.875 0.125
d 0.875 0.125
d 0.875 0.125
d 0.875 0.125
d 0.875 0.125
d 0.875 0.125
d 0.875 0.125
d 0.875 0.125
d 0.875 0.125
d 0.875 0.125
d 0.875 0.125
d 0.875 0.125
d 0.875 0.125
d 0.875 0.125
d 0.875 0.125
d 0.875 0.125
d 0.875 0.125
d 0.875 0.125
d 0.875 0.125
d 0.875 0.125
d 0.875 0.125
d 0.875 0.125
d 0.875 0.125
d 0.875 0.125
d 0.875 0.125
d 0.875 0.125
d 0.875 0.125
d 0.875 0.125
d 0.875 0.125
d 0.875 0.125
d 0.875 0.125
d 0.875 0.125
d 0.875 0.125
d 0.875 0.125
d 0.875 0.125
d 0.875 0.125
d 0.875 0.125
d 0.875 0.125
d 0.875 0.125
d 0.875 0.125
d 0.875 0.125
d 0.875 0.125
d 0.875 0.125
d 0.875 0.125
d 0.875 0.125
d 0.875 0.125
d 0.875 0.125
d 0.875 0.125
d 0.875 0.125
d 0.875 0.125
d 0.875 0.125
d 0.875 0.125
d 0.875 0.125
d 0.875 0.125
d 0.875 0.125
d 0.875 0.125
d 0.875 0.125
d 0.875 0.125
d 0.875 0.125
d 0.875 0.125
d 0.875 0.125
d 0.875 0.125
d 0.875 0.125
d 0.875 0.125
d 0.875 0.125
d 0.875 0.125
d 0.875 0.125
d 0.875 0.125
d 0.875 0.125
d 0.875 0.125
d 0.875 0.125
d 0.875 0.125
d 0.875 0.125
d 0.875 0.125
d 0.875 0.125
d 0.875 0.125
d 0.875 0.125
d 0.875 0.125
d 0.875 0.125
d 0.875 0.125
266
-279
259 -263 -0
263 -259 -0
238 -278 -2
278 -238 -2
279 -277 -4
277 -279 -4
238 -280 -6
280 -238 -6
273 -215 -8
215 -273 -8
239 -211 -10
211 -239 -10
277 -279 -12
279 -277 -12
281 -253 -14
253 -281 -14
214 -281 -16
281 -214 -16
211 -207 -18
207 -211 -18
215 -257 -20
257 -215 -20
241 -249 -22
249 -241 -22
222 -243 -24
243 -222 -24
222 -243 -26
243 -222 -26
274 -237 -28
237 -274 -28
283 -285 -30
285 -283 -30
289 -271 -32
271 -289 -32
240 -267 -34
267 -240 -34
241 -249 -36
249 -241 -36
240 -289 -38
289 -240 -38
275 -219 -40
219 -275 -40
246 -239 -42
239 -246 -42
249 -247 -44
247 -249 -44
264 -268 -46
268 -264 -46
235 -262 -48
262 -235 -48
266 -287 -50
287 -266 -50
247 -252 -52
252 -247 -52
240 -256 -54
256 -240 -54
214 -242 -56
242 -214 -56
251 -228 -58
228 -251 -58
242 -286 -60
286 -242 -60
234 -288 -62
288 -234 -62
282 -271 -64
271 -282 -64
245 -238 -66
238 -245 -66
212 -207 -68
207 -212 -68
212 -221 -70
221 -212 -70
277 -242 -72
242 -277 -72
220 -221 -74
221 -220 -74
218 -207 -76
207 -218 -76
259 -285 -78
285 -259 -78
222 -235 -80
235 -222 -80
259 -263 -82
263 -259 -82
248 -236 -84
236 -248 -84
263 -273 -86
273 -263 -86
273 -215 -88
215 -273 -88
261 -250 -90
250 -261 -90
267 -251 -92
251 -267 -92
218 -246 -94
246 -218 -94
231 -279 -96
279 -231 -96
240 -289 -98
289 -240 -98
283 -270 -100
270 -283 -100
233 -266 -102
266 -233 -102
290 -210 -104
210 -290 -104
287 -245 -106
245 -287 -106
272 -262 -108
262 -272 -108
252 -272 -110
272 -252 -110
248 -232 -112
232 -248 -112
243 -225 -114
225 -243 -114
274 -287 -116
287 -274 -116
278 -237 -118
237 -278 -118
241 -271 -120
271 -241 -120
229 -234 -122
234 -229 -122
228 -213 -124
213 -228 -124
233 -266 -126
266 -233 -126
279 -231 -128
231 -279 -128
270 -260 -130
260 -270 -130
229 -213 -132
213 -229 -132
249 -247 -134
247 -249 -134
276 -209 -136
209 -276 -136
235 -217 -138
217 -235 -138
275 -256 -140
256 -275 -140
216 -223 -142
223 -216 -142
258 -269 -144
269 -258 -144
223 -244 -146
244 -223 -146
246 -239 -148
239 -246 -148
274 -208 -150
208 -274 -150
282 -289 -152
289 -282 -152
227 -210 -154
210 -227 -154
288 -236 -156
236 -288 -156
264 -261 -158
261 -264 -158
211 -254 -160
254 -211 -160
230 -255 -162
255 -230 -162
283 -231 -164
231 -283 -164
276 -291 -166
291 -276 -166
291 -233 -168
233 -291 -168
274 -280 -170
280 -274 -170
224 -244 -172
244 -224 -172
207 -260 -174
260 -207 -174
255 -291 -176
291 -255 -176
219 -268 -178
268 -219 -178
224 -217 -180
217 -224 -180
217 -262 -182
262 -217 -182
224 -226 -184
226 -224 -184
237 -280 -186
280 -237 -186
250 -287 -188
287 -250 -188
220 -230 -190
230 -220 -190
290 -232 -192
232 -290 -192
240 -206 -194
206 -240 -194
257 -210 -196
210 -257 -196
284 -226 -198
226 -284 -198
269 -207 -200
207 -269 -200
207 -260 -202
260 -207 -202
247 -265 -204
265 -247 -204